<?xml version = "1.0" encoding="UTF-8" standalone="yes"?>
<CPLEXSolution version="1.2">
 <header
   problemName=""
   solutionName="incumbent"
   solutionIndex="-1"
   objectiveValue="6639"
   solutionTypeValue="3"
   solutionTypeString="primal"
   solutionStatusValue="101"
   solutionStatusString="integer optimal solution"
   solutionMethodString="mip"
   primalFeasible="1"
   dualFeasible="1"
   MIPNodes="0"
   MIPIterations="409"
   writeLevel="1"/>
 <quality
   epInt="1.0000000000000001e-05"
   epRHS="9.9999999999999995e-07"
   maxIntInfeas="0"
   maxPrimalInfeas="0"
   maxX="12"
   maxSlack="11"/>
 <linearConstraints>
  <constraint name="A" index="0" slack="0"/>
  <constraint name="B_1" index="1" slack="0"/>
  <constraint name="B_2" index="2" slack="0"/>
  <constraint name="B_3" index="3" slack="0"/>
  <constraint name="B_4" index="4" slack="0"/>
  <constraint name="B_5" index="5" slack="0"/>
  <constraint name="B_6" index="6" slack="0"/>
  <constraint name="B_7" index="7" slack="0"/>
  <constraint name="B_8" index="8" slack="0"/>
  <constraint name="B_9" index="9" slack="0"/>
  <constraint name="B_10" index="10" slack="0"/>
  <constraint name="B_11" index="11" slack="0"/>
  <constraint name="C0" index="12" slack="0"/>
  <constraint name="C1" index="13" slack="0"/>
  <constraint name="C2" index="14" slack="0"/>
  <constraint name="C3" index="15" slack="0"/>
  <constraint name="C4" index="16" slack="0"/>
  <constraint name="C5" index="17" slack="0"/>
  <constraint name="C6" index="18" slack="0"/>
  <constraint name="C7" index="19" slack="0"/>
  <constraint name="C8" index="20" slack="0"/>
  <constraint name="C9" index="21" slack="0"/>
  <constraint name="C10" index="22" slack="0"/>
  <constraint name="C11" index="23" slack="0"/>
  <constraint name="D0" index="24" slack="0"/>
  <constraint name="D1" index="25" slack="0"/>
  <constraint name="D2" index="26" slack="0"/>
  <constraint name="D3" index="27" slack="0"/>
  <constraint name="D4" index="28" slack="0"/>
  <constraint name="D5" index="29" slack="0"/>
  <constraint name="D6" index="30" slack="0"/>
  <constraint name="D7" index="31" slack="0"/>
  <constraint name="D8" index="32" slack="0"/>
  <constraint name="D9" index="33" slack="0"/>
  <constraint name="D10" index="34" slack="0"/>
  <constraint name="D11" index="35" slack="0"/>
  <constraint name="FOO_0_1" index="36" slack="0"/>
  <constraint name="FOO_0_2" index="37" slack="0"/>
  <constraint name="FOO_0_3" index="38" slack="0"/>
  <constraint name="FOO_0_4" index="39" slack="0"/>
  <constraint name="FOO_0_5" index="40" slack="0"/>
  <constraint name="FOO_0_6" index="41" slack="0"/>
  <constraint name="FOO_0_7" index="42" slack="0"/>
  <constraint name="FOO_0_8" index="43" slack="0"/>
  <constraint name="FOO_0_9" index="44" slack="0"/>
  <constraint name="FOO_0_10" index="45" slack="0"/>
  <constraint name="FOO_0_11" index="46" slack="0"/>
  <constraint name="FOO_1_0" index="47" slack="0"/>
  <constraint name="FOO_1_2" index="48" slack="0"/>
  <constraint name="FOO_1_3" index="49" slack="0"/>
  <constraint name="FOO_1_4" index="50" slack="0"/>
  <constraint name="FOO_1_5" index="51" slack="0"/>
  <constraint name="FOO_1_6" index="52" slack="0"/>
  <constraint name="FOO_1_7" index="53" slack="1"/>
  <constraint name="FOO_1_8" index="54" slack="0"/>
  <constraint name="FOO_1_9" index="55" slack="0"/>
  <constraint name="FOO_1_10" index="56" slack="0"/>
  <constraint name="FOO_1_11" index="57" slack="0"/>
  <constraint name="FOO_2_0" index="58" slack="11"/>
  <constraint name="FOO_2_1" index="59" slack="0"/>
  <constraint name="FOO_2_3" index="60" slack="0"/>
  <constraint name="FOO_2_4" index="61" slack="0"/>
  <constraint name="FOO_2_5" index="62" slack="0"/>
  <constraint name="FOO_2_6" index="63" slack="0"/>
  <constraint name="FOO_2_7" index="64" slack="0"/>
  <constraint name="FOO_2_8" index="65" slack="0"/>
  <constraint name="FOO_2_9" index="66" slack="0"/>
  <constraint name="FOO_2_10" index="67" slack="0"/>
  <constraint name="FOO_2_11" index="68" slack="0"/>
  <constraint name="FOO_3_0" index="69" slack="0"/>
  <constraint name="FOO_3_1" index="70" slack="0"/>
  <constraint name="FOO_3_2" index="71" slack="10"/>
  <constraint name="FOO_3_4" index="72" slack="0"/>
  <constraint name="FOO_3_5" index="73" slack="0"/>
  <constraint name="FOO_3_6" index="74" slack="0"/>
  <constraint name="FOO_3_7" index="75" slack="0"/>
  <constraint name="FOO_3_8" index="76" slack="0"/>
  <constraint name="FOO_3_9" index="77" slack="0"/>
  <constraint name="FOO_3_10" index="78" slack="0"/>
  <constraint name="FOO_3_11" index="79" slack="0"/>
  <constraint name="FOO_4_0" index="80" slack="0"/>
  <constraint name="FOO_4_1" index="81" slack="0"/>
  <constraint name="FOO_4_2" index="82" slack="0"/>
  <constraint name="FOO_4_3" index="83" slack="9"/>
  <constraint name="FOO_4_5" index="84" slack="0"/>
  <constraint name="FOO_4_6" index="85" slack="0"/>
  <constraint name="FOO_4_7" index="86" slack="0"/>
  <constraint name="FOO_4_8" index="87" slack="0"/>
  <constraint name="FOO_4_9" index="88" slack="0"/>
  <constraint name="FOO_4_10" index="89" slack="0"/>
  <constraint name="FOO_4_11" index="90" slack="0"/>
  <constraint name="FOO_5_0" index="91" slack="0"/>
  <constraint name="FOO_5_1" index="92" slack="0"/>
  <constraint name="FOO_5_2" index="93" slack="0"/>
  <constraint name="FOO_5_3" index="94" slack="0"/>
  <constraint name="FOO_5_4" index="95" slack="8"/>
  <constraint name="FOO_5_6" index="96" slack="0"/>
  <constraint name="FOO_5_7" index="97" slack="0"/>
  <constraint name="FOO_5_8" index="98" slack="0"/>
  <constraint name="FOO_5_9" index="99" slack="0"/>
  <constraint name="FOO_5_10" index="100" slack="0"/>
  <constraint name="FOO_5_11" index="101" slack="0"/>
  <constraint name="FOO_6_0" index="102" slack="0"/>
  <constraint name="FOO_6_1" index="103" slack="0"/>
  <constraint name="FOO_6_2" index="104" slack="0"/>
  <constraint name="FOO_6_3" index="105" slack="0"/>
  <constraint name="FOO_6_4" index="106" slack="0"/>
  <constraint name="FOO_6_5" index="107" slack="7"/>
  <constraint name="FOO_6_7" index="108" slack="0"/>
  <constraint name="FOO_6_8" index="109" slack="0"/>
  <constraint name="FOO_6_9" index="110" slack="0"/>
  <constraint name="FOO_6_10" index="111" slack="0"/>
  <constraint name="FOO_6_11" index="112" slack="0"/>
  <constraint name="FOO_7_0" index="113" slack="0"/>
  <constraint name="FOO_7_1" index="114" slack="0"/>
  <constraint name="FOO_7_2" index="115" slack="0"/>
  <constraint name="FOO_7_3" index="116" slack="0"/>
  <constraint name="FOO_7_4" index="117" slack="0"/>
  <constraint name="FOO_7_5" index="118" slack="0"/>
  <constraint name="FOO_7_6" index="119" slack="0"/>
  <constraint name="FOO_7_8" index="120" slack="2"/>
  <constraint name="FOO_7_9" index="121" slack="0"/>
  <constraint name="FOO_7_10" index="122" slack="0"/>
  <constraint name="FOO_7_11" index="123" slack="0"/>
  <constraint name="FOO_8_0" index="124" slack="0"/>
  <constraint name="FOO_8_1" index="125" slack="0"/>
  <constraint name="FOO_8_2" index="126" slack="0"/>
  <constraint name="FOO_8_3" index="127" slack="0"/>
  <constraint name="FOO_8_4" index="128" slack="0"/>
  <constraint name="FOO_8_5" index="129" slack="0"/>
  <constraint name="FOO_8_6" index="130" slack="0"/>
  <constraint name="FOO_8_7" index="131" slack="0"/>
  <constraint name="FOO_8_9" index="132" slack="0"/>
  <constraint name="FOO_8_10" index="133" slack="0"/>
  <constraint name="FOO_8_11" index="134" slack="3"/>
  <constraint name="FOO_9_0" index="135" slack="0"/>
  <constraint name="FOO_9_1" index="136" slack="0"/>
  <constraint name="FOO_9_2" index="137" slack="0"/>
  <constraint name="FOO_9_3" index="138" slack="0"/>
  <constraint name="FOO_9_4" index="139" slack="0"/>
  <constraint name="FOO_9_5" index="140" slack="0"/>
  <constraint name="FOO_9_6" index="141" slack="6"/>
  <constraint name="FOO_9_7" index="142" slack="0"/>
  <constraint name="FOO_9_8" index="143" slack="0"/>
  <constraint name="FOO_9_10" index="144" slack="0"/>
  <constraint name="FOO_9_11" index="145" slack="0"/>
  <constraint name="FOO_10_0" index="146" slack="0"/>
  <constraint name="FOO_10_1" index="147" slack="0"/>
  <constraint name="FOO_10_2" index="148" slack="0"/>
  <constraint name="FOO_10_3" index="149" slack="0"/>
  <constraint name="FOO_10_4" index="150" slack="0"/>
  <constraint name="FOO_10_5" index="151" slack="0"/>
  <constraint name="FOO_10_6" index="152" slack="0"/>
  <constraint name="FOO_10_7" index="153" slack="0"/>
  <constraint name="FOO_10_8" index="154" slack="0"/>
  <constraint name="FOO_10_9" index="155" slack="5"/>
  <constraint name="FOO_10_11" index="156" slack="0"/>
  <constraint name="FOO_11_0" index="157" slack="0"/>
  <constraint name="FOO_11_1" index="158" slack="0"/>
  <constraint name="FOO_11_2" index="159" slack="0"/>
  <constraint name="FOO_11_3" index="160" slack="0"/>
  <constraint name="FOO_11_4" index="161" slack="0"/>
  <constraint name="FOO_11_5" index="162" slack="0"/>
  <constraint name="FOO_11_6" index="163" slack="0"/>
  <constraint name="FOO_11_7" index="164" slack="0"/>
  <constraint name="FOO_11_8" index="165" slack="0"/>
  <constraint name="FOO_11_9" index="166" slack="0"/>
  <constraint name="FOO_11_10" index="167" slack="4"/>
 </linearConstraints>
 <variables>
  <variable name="x_0_1" index="0" value="12"/>
  <variable name="x_0_2" index="1" value="0"/>
  <variable name="x_0_3" index="2" value="0"/>
  <variable name="x_0_4" index="3" value="0"/>
  <variable name="x_0_5" index="4" value="0"/>
  <variable name="x_0_6" index="5" value="0"/>
  <variable name="x_0_7" index="6" value="0"/>
  <variable name="x_0_8" index="7" value="0"/>
  <variable name="x_0_9" index="8" value="0"/>
  <variable name="x_0_10" index="9" value="0"/>
  <variable name="x_0_11" index="10" value="0"/>
  <variable name="x_1_0" index="11" value="0"/>
  <variable name="x_1_2" index="12" value="0"/>
  <variable name="x_1_3" index="13" value="0"/>
  <variable name="x_1_4" index="14" value="0"/>
  <variable name="x_1_5" index="15" value="0"/>
  <variable name="x_1_6" index="16" value="0"/>
  <variable name="x_1_7" index="17" value="11"/>
  <variable name="x_1_8" index="18" value="0"/>
  <variable name="x_1_9" index="19" value="0"/>
  <variable name="x_1_10" index="20" value="0"/>
  <variable name="x_1_11" index="21" value="0"/>
  <variable name="x_2_0" index="22" value="1"/>
  <variable name="x_2_1" index="23" value="0"/>
  <variable name="x_2_3" index="24" value="0"/>
  <variable name="x_2_4" index="25" value="0"/>
  <variable name="x_2_5" index="26" value="0"/>
  <variable name="x_2_6" index="27" value="0"/>
  <variable name="x_2_7" index="28" value="0"/>
  <variable name="x_2_8" index="29" value="0"/>
  <variable name="x_2_9" index="30" value="0"/>
  <variable name="x_2_10" index="31" value="0"/>
  <variable name="x_2_11" index="32" value="0"/>
  <variable name="x_3_0" index="33" value="0"/>
  <variable name="x_3_1" index="34" value="0"/>
  <variable name="x_3_2" index="35" value="2"/>
  <variable name="x_3_4" index="36" value="0"/>
  <variable name="x_3_5" index="37" value="0"/>
  <variable name="x_3_6" index="38" value="0"/>
  <variable name="x_3_7" index="39" value="0"/>
  <variable name="x_3_8" index="40" value="0"/>
  <variable name="x_3_9" index="41" value="0"/>
  <variable name="x_3_10" index="42" value="0"/>
  <variable name="x_3_11" index="43" value="0"/>
  <variable name="x_4_0" index="44" value="0"/>
  <variable name="x_4_1" index="45" value="0"/>
  <variable name="x_4_2" index="46" value="0"/>
  <variable name="x_4_3" index="47" value="3"/>
  <variable name="x_4_5" index="48" value="0"/>
  <variable name="x_4_6" index="49" value="0"/>
  <variable name="x_4_7" index="50" value="0"/>
  <variable name="x_4_8" index="51" value="0"/>
  <variable name="x_4_9" index="52" value="0"/>
  <variable name="x_4_10" index="53" value="0"/>
  <variable name="x_4_11" index="54" value="0"/>
  <variable name="x_5_0" index="55" value="0"/>
  <variable name="x_5_1" index="56" value="0"/>
  <variable name="x_5_2" index="57" value="0"/>
  <variable name="x_5_3" index="58" value="0"/>
  <variable name="x_5_4" index="59" value="4"/>
  <variable name="x_5_6" index="60" value="0"/>
  <variable name="x_5_7" index="61" value="0"/>
  <variable name="x_5_8" index="62" value="0"/>
  <variable name="x_5_9" index="63" value="0"/>
  <variable name="x_5_10" index="64" value="0"/>
  <variable name="x_5_11" index="65" value="0"/>
  <variable name="x_6_0" index="66" value="0"/>
  <variable name="x_6_1" index="67" value="0"/>
  <variable name="x_6_2" index="68" value="0"/>
  <variable name="x_6_3" index="69" value="0"/>
  <variable name="x_6_4" index="70" value="0"/>
  <variable name="x_6_5" index="71" value="5"/>
  <variable name="x_6_7" index="72" value="0"/>
  <variable name="x_6_8" index="73" value="0"/>
  <variable name="x_6_9" index="74" value="0"/>
  <variable name="x_6_10" index="75" value="0"/>
  <variable name="x_6_11" index="76" value="0"/>
  <variable name="x_7_0" index="77" value="0"/>
  <variable name="x_7_1" index="78" value="0"/>
  <variable name="x_7_2" index="79" value="0"/>
  <variable name="x_7_3" index="80" value="0"/>
  <variable name="x_7_4" index="81" value="0"/>
  <variable name="x_7_5" index="82" value="0"/>
  <variable name="x_7_6" index="83" value="0"/>
  <variable name="x_7_8" index="84" value="10"/>
  <variable name="x_7_9" index="85" value="0"/>
  <variable name="x_7_10" index="86" value="0"/>
  <variable name="x_7_11" index="87" value="0"/>
  <variable name="x_8_0" index="88" value="0"/>
  <variable name="x_8_1" index="89" value="0"/>
  <variable name="x_8_2" index="90" value="0"/>
  <variable name="x_8_3" index="91" value="0"/>
  <variable name="x_8_4" index="92" value="0"/>
  <variable name="x_8_5" index="93" value="0"/>
  <variable name="x_8_6" index="94" value="0"/>
  <variable name="x_8_7" index="95" value="0"/>
  <variable name="x_8_9" index="96" value="0"/>
  <variable name="x_8_10" index="97" value="0"/>
  <variable name="x_8_11" index="98" value="9"/>
  <variable name="x_9_0" index="99" value="0"/>
  <variable name="x_9_1" index="100" value="0"/>
  <variable name="x_9_2" index="101" value="0"/>
  <variable name="x_9_3" index="102" value="0"/>
  <variable name="x_9_4" index="103" value="0"/>
  <variable name="x_9_5" index="104" value="0"/>
  <variable name="x_9_6" index="105" value="6"/>
  <variable name="x_9_7" index="106" value="0"/>
  <variable name="x_9_8" index="107" value="0"/>
  <variable name="x_9_10" index="108" value="0"/>
  <variable name="x_9_11" index="109" value="0"/>
  <variable name="x_10_0" index="110" value="0"/>
  <variable name="x_10_1" index="111" value="0"/>
  <variable name="x_10_2" index="112" value="0"/>
  <variable name="x_10_3" index="113" value="0"/>
  <variable name="x_10_4" index="114" value="0"/>
  <variable name="x_10_5" index="115" value="0"/>
  <variable name="x_10_6" index="116" value="0"/>
  <variable name="x_10_7" index="117" value="0"/>
  <variable name="x_10_8" index="118" value="0"/>
  <variable name="x_10_9" index="119" value="7"/>
  <variable name="x_10_11" index="120" value="0"/>
  <variable name="x_11_0" index="121" value="0"/>
  <variable name="x_11_1" index="122" value="0"/>
  <variable name="x_11_2" index="123" value="0"/>
  <variable name="x_11_3" index="124" value="0"/>
  <variable name="x_11_4" index="125" value="0"/>
  <variable name="x_11_5" index="126" value="0"/>
  <variable name="x_11_6" index="127" value="0"/>
  <variable name="x_11_7" index="128" value="0"/>
  <variable name="x_11_8" index="129" value="0"/>
  <variable name="x_11_9" index="130" value="0"/>
  <variable name="x_11_10" index="131" value="8"/>
  <variable name="y_0_1" index="132" value="1"/>
  <variable name="y_0_2" index="133" value="0"/>
  <variable name="y_0_3" index="134" value="0"/>
  <variable name="y_0_4" index="135" value="0"/>
  <variable name="y_0_5" index="136" value="0"/>
  <variable name="y_0_6" index="137" value="0"/>
  <variable name="y_0_7" index="138" value="0"/>
  <variable name="y_0_8" index="139" value="0"/>
  <variable name="y_0_9" index="140" value="0"/>
  <variable name="y_0_10" index="141" value="0"/>
  <variable name="y_0_11" index="142" value="0"/>
  <variable name="y_1_0" index="143" value="0"/>
  <variable name="y_1_2" index="144" value="0"/>
  <variable name="y_1_3" index="145" value="0"/>
  <variable name="y_1_4" index="146" value="0"/>
  <variable name="y_1_5" index="147" value="0"/>
  <variable name="y_1_6" index="148" value="0"/>
  <variable name="y_1_7" index="149" value="1"/>
  <variable name="y_1_8" index="150" value="0"/>
  <variable name="y_1_9" index="151" value="0"/>
  <variable name="y_1_10" index="152" value="0"/>
  <variable name="y_1_11" index="153" value="0"/>
  <variable name="y_2_0" index="154" value="1"/>
  <variable name="y_2_1" index="155" value="0"/>
  <variable name="y_2_3" index="156" value="0"/>
  <variable name="y_2_4" index="157" value="0"/>
  <variable name="y_2_5" index="158" value="0"/>
  <variable name="y_2_6" index="159" value="0"/>
  <variable name="y_2_7" index="160" value="0"/>
  <variable name="y_2_8" index="161" value="0"/>
  <variable name="y_2_9" index="162" value="0"/>
  <variable name="y_2_10" index="163" value="0"/>
  <variable name="y_2_11" index="164" value="0"/>
  <variable name="y_3_0" index="165" value="0"/>
  <variable name="y_3_1" index="166" value="0"/>
  <variable name="y_3_2" index="167" value="1"/>
  <variable name="y_3_4" index="168" value="0"/>
  <variable name="y_3_5" index="169" value="0"/>
  <variable name="y_3_6" index="170" value="0"/>
  <variable name="y_3_7" index="171" value="0"/>
  <variable name="y_3_8" index="172" value="0"/>
  <variable name="y_3_9" index="173" value="0"/>
  <variable name="y_3_10" index="174" value="0"/>
  <variable name="y_3_11" index="175" value="0"/>
  <variable name="y_4_0" index="176" value="0"/>
  <variable name="y_4_1" index="177" value="0"/>
  <variable name="y_4_2" index="178" value="0"/>
  <variable name="y_4_3" index="179" value="1"/>
  <variable name="y_4_5" index="180" value="0"/>
  <variable name="y_4_6" index="181" value="0"/>
  <variable name="y_4_7" index="182" value="0"/>
  <variable name="y_4_8" index="183" value="0"/>
  <variable name="y_4_9" index="184" value="0"/>
  <variable name="y_4_10" index="185" value="0"/>
  <variable name="y_4_11" index="186" value="0"/>
  <variable name="y_5_0" index="187" value="0"/>
  <variable name="y_5_1" index="188" value="0"/>
  <variable name="y_5_2" index="189" value="0"/>
  <variable name="y_5_3" index="190" value="0"/>
  <variable name="y_5_4" index="191" value="1"/>
  <variable name="y_5_6" index="192" value="0"/>
  <variable name="y_5_7" index="193" value="0"/>
  <variable name="y_5_8" index="194" value="0"/>
  <variable name="y_5_9" index="195" value="0"/>
  <variable name="y_5_10" index="196" value="0"/>
  <variable name="y_5_11" index="197" value="0"/>
  <variable name="y_6_0" index="198" value="0"/>
  <variable name="y_6_1" index="199" value="0"/>
  <variable name="y_6_2" index="200" value="0"/>
  <variable name="y_6_3" index="201" value="0"/>
  <variable name="y_6_4" index="202" value="0"/>
  <variable name="y_6_5" index="203" value="1"/>
  <variable name="y_6_7" index="204" value="0"/>
  <variable name="y_6_8" index="205" value="0"/>
  <variable name="y_6_9" index="206" value="0"/>
  <variable name="y_6_10" index="207" value="0"/>
  <variable name="y_6_11" index="208" value="0"/>
  <variable name="y_7_0" index="209" value="0"/>
  <variable name="y_7_1" index="210" value="0"/>
  <variable name="y_7_2" index="211" value="0"/>
  <variable name="y_7_3" index="212" value="0"/>
  <variable name="y_7_4" index="213" value="0"/>
  <variable name="y_7_5" index="214" value="0"/>
  <variable name="y_7_6" index="215" value="0"/>
  <variable name="y_7_8" index="216" value="1"/>
  <variable name="y_7_9" index="217" value="0"/>
  <variable name="y_7_10" index="218" value="0"/>
  <variable name="y_7_11" index="219" value="0"/>
  <variable name="y_8_0" index="220" value="0"/>
  <variable name="y_8_1" index="221" value="0"/>
  <variable name="y_8_2" index="222" value="0"/>
  <variable name="y_8_3" index="223" value="0"/>
  <variable name="y_8_4" index="224" value="0"/>
  <variable name="y_8_5" index="225" value="0"/>
  <variable name="y_8_6" index="226" value="0"/>
  <variable name="y_8_7" index="227" value="0"/>
  <variable name="y_8_9" index="228" value="0"/>
  <variable name="y_8_10" index="229" value="0"/>
  <variable name="y_8_11" index="230" value="1"/>
  <variable name="y_9_0" index="231" value="0"/>
  <variable name="y_9_1" index="232" value="0"/>
  <variable name="y_9_2" index="233" value="0"/>
  <variable name="y_9_3" index="234" value="0"/>
  <variable name="y_9_4" index="235" value="0"/>
  <variable name="y_9_5" index="236" value="0"/>
  <variable name="y_9_6" index="237" value="1"/>
  <variable name="y_9_7" index="238" value="0"/>
  <variable name="y_9_8" index="239" value="0"/>
  <variable name="y_9_10" index="240" value="0"/>
  <variable name="y_9_11" index="241" value="0"/>
  <variable name="y_10_0" index="242" value="0"/>
  <variable name="y_10_1" index="243" value="0"/>
  <variable name="y_10_2" index="244" value="0"/>
  <variable name="y_10_3" index="245" value="0"/>
  <variable name="y_10_4" index="246" value="0"/>
  <variable name="y_10_5" index="247" value="0"/>
  <variable name="y_10_6" index="248" value="0"/>
  <variable name="y_10_7" index="249" value="0"/>
  <variable name="y_10_8" index="250" value="0"/>
  <variable name="y_10_9" index="251" value="1"/>
  <variable name="y_10_11" index="252" value="0"/>
  <variable name="y_11_0" index="253" value="0"/>
  <variable name="y_11_1" index="254" value="0"/>
  <variable name="y_11_2" index="255" value="0"/>
  <variable name="y_11_3" index="256" value="0"/>
  <variable name="y_11_4" index="257" value="0"/>
  <variable name="y_11_5" index="258" value="0"/>
  <variable name="y_11_6" index="259" value="0"/>
  <variable name="y_11_7" index="260" value="0"/>
  <variable name="y_11_8" index="261" value="0"/>
  <variable name="y_11_9" index="262" value="0"/>
  <variable name="y_11_10" index="263" value="1"/>
 </variables>
</CPLEXSolution>
